lps/t_sol_ini_ID000M003J004_ZintFalse_manne_ub1.lp
\ This file has been generated by DOcplex
\ ENCODING=ISO-8859-1
\Problem name: manne

Minimize
 obj: cmax
Subject To
 c1: x_1_0 - x_0_0 >= 1
 c2: x_2_0 - x_1_0 >= 3
 c3: x_0_1 - x_1_1 >= 8
 c4: x_2_1 - x_0_1 >= 5
 c5: x_2_2 - x_0_2 >= 5
 c6: x_1_2 - x_2_2 >= 4
 c7: x_0_3 - x_2_3 >= 4
 c8: x_1_3 - x_0_3 >= 10
 c9: x_0_0 - x_0_1 + 66 z_0_0_1 >= 5
 c10: x_0_1 - x_0_0 - 66 z_0_0_1 >= -65
 c11: x_0_0 - x_0_2 + 66 z_0_0_2 >= 5
 c12: x_0_2 - x_0_0 - 66 z_0_0_2 >= -65
 c13: x_0_0 - x_0_3 + 66 z_0_0_3 >= 10
 c14: x_0_3 - x_0_0 - 66 z_0_0_3 >= -65
 c15: x_0_1 - x_0_2 + 66 z_0_1_2 >= 5
 c16: x_0_2 - x_0_1 - 66 z_0_1_2 >= -61
 c17: x_0_1 - x_0_3 + 66 z_0_1_3 >= 10
 c18: x_0_3 - x_0_1 - 66 z_0_1_3 >= -61
 c19: x_0_2 - x_0_3 + 66 z_0_2_3 >= 10
 c20: x_0_3 - x_0_2 - 66 z_0_2_3 >= -61
 c21: x_1_0 - x_1_1 + 66 z_1_0_1 >= 8
 c22: x_1_1 - x_1_0 - 66 z_1_0_1 >= -63
 c23: x_1_0 - x_1_2 + 66 z_1_0_2 >= 8
 c24: x_1_2 - x_1_0 - 66 z_1_0_2 >= -63
 c25: x_1_0 - x_1_3 + 66 z_1_0_3 >= 6
 c26: x_1_3 - x_1_0 - 66 z_1_0_3 >= -63
 c27: x_1_1 - x_1_2 + 66 z_1_1_2 >= 8
 c28: x_1_2 - x_1_1 - 66 z_1_1_2 >= -58
 c29: x_1_1 - x_1_3 + 66 z_1_1_3 >= 6
 c30: x_1_3 - x_1_1 - 66 z_1_1_3 >= -58
 c31: x_1_2 - x_1_3 + 66 z_1_2_3 >= 6
 c32: x_1_3 - x_1_2 - 66 z_1_2_3 >= -58
 c33: x_2_0 - x_2_1 + 66 z_2_0_1 >= 10
 c34: x_2_1 - x_2_0 - 66 z_2_0_1 >= -64
 c35: x_2_0 - x_2_2 + 66 z_2_0_2 >= 4
 c36: x_2_2 - x_2_0 - 66 z_2_0_2 >= -64
 c37: x_2_0 - x_2_3 + 66 z_2_0_3 >= 4
 c38: x_2_3 - x_2_0 - 66 z_2_0_3 >= -64
 c39: x_2_1 - x_2_2 + 66 z_2_1_2 >= 4
 c40: x_2_2 - x_2_1 - 66 z_2_1_2 >= -56
 c41: x_2_1 - x_2_3 + 66 z_2_1_3 >= 4
 c42: x_2_3 - x_2_1 - 66 z_2_1_3 >= -56
 c43: x_2_2 - x_2_3 + 66 z_2_2_3 >= 4
 c44: x_2_3 - x_2_2 - 66 z_2_2_3 >= -62
 c45: cmax - x_2_0 >= 2
 c46: cmax - x_2_1 >= 10
 c47: cmax - x_1_2 >= 8
 c48: cmax - x_1_3 >= 6

Bounds
       z_0_0_1 <= 1
       z_0_0_2 <= 1
       z_0_0_3 <= 1
       z_0_1_2 <= 1
       z_0_1_3 <= 1
       z_0_2_3 <= 1
       z_1_0_1 <= 1
       z_1_0_2 <= 1
       z_1_0_3 <= 1
       z_1_1_2 <= 1
       z_1_1_3 <= 1
       z_1_2_3 <= 1
       z_2_0_1 <= 1
       z_2_0_2 <= 1
       z_2_0_3 <= 1
       z_2_1_2 <= 1
       z_2_1_3 <= 1
       z_2_2_3 <= 1
 23 <= cmax
End
